# Density of States

SYSTEM = NiSi Orthorhombic Pnma (No. 62) MnP type
NCORE = 2
PREC = Accurate
EDIFF = 1E-10
EDIFFG = -1E-5

ISMEAR = 0
SIGMA = 0.03
GGA = PE

ENCUT = 520
NSW = 0

IBRION = -1
ISIF = 0

LWAVE = .FALSE.
LCHARG = .FALSE.

LORBIT = 11

NEDOS = 601

