NiSi                                    
   1.00000000000000     
     4.5192201723237471   -0.0000000000000000   -0.0000000000000000
     0.0000000000000000    4.5192201723237471   -0.0000000000000000
     0.0000000000000000   -0.0000000000000000    4.5192201723237471
  Ni/0534bc51ca8  Si/79d9987ad87
               4               4
Direct
  0.8514306329509543  0.8514306329509543  0.8514306329509543
  0.1485693670490455  0.6485693670490457  0.3514306329509545
  0.3514306329509545  0.1485693670490455  0.6485693670490457
  0.6485693670490457  0.3514306329509545  0.1485693670490455
  0.1535785484868079  0.1535785484868079  0.1535785484868079
  0.8464214515131921  0.3464214515131920  0.6535785484868079
  0.6535785484868079  0.8464214515131921  0.3464214515131920
  0.3464214515131920  0.6535785484868079  0.8464214515131921
 
  0.00000000E+00  0.00000000E+00  0.00000000E+00
  0.00000000E+00  0.00000000E+00  0.00000000E+00
  0.00000000E+00  0.00000000E+00  0.00000000E+00
  0.00000000E+00  0.00000000E+00  0.00000000E+00
  0.00000000E+00  0.00000000E+00  0.00000000E+00
  0.00000000E+00  0.00000000E+00  0.00000000E+00
  0.00000000E+00  0.00000000E+00  0.00000000E+00
  0.00000000E+00  0.00000000E+00  0.00000000E+00
