KPOINTS
 0
Gamma point shift
 22    22    22
  0     0     0
