NiSi
1.000000
   4.49677991870000   0.00000000000000   0.00000000000000
   0.00000000000000   4.49677991870000   0.00000000000000
   0.00000000000000   0.00000000000000   4.49677991870000
Ni Si 
 4  4 
Direct 
   0.85300000000000   0.85300000000000   0.85300000000000  Ni    
   0.14700000000000   0.64700000000000   0.35300000000000  Ni    
   0.35300000000000   0.14700000000000   0.64700000000000  Ni    
   0.64700000000000   0.35300000000000   0.14700000000000  Ni    
   0.13990000000000   0.13990000000000   0.13990000000000  Si    
   0.86010000000000   0.36010000000000   0.63990000000000  Si    
   0.63990000000000   0.86010000000000   0.36010000000000  Si    
   0.36010000000000   0.63990000000000   0.86010000000000  Si    