Nickel silicide (1/1)  [ORC,ORC,oP4] (STD_PRIM doi:10.1016/j.commatsci.2010.05.010)
1.000000
   3.02661991120000   0.00000000000000   0.00000000000000
   0.00000000000000   3.27349996570000   0.00000000000000
   0.00000000000000   0.00000000000000   4.69776010510000
Ni Si 
2 2 
Direct(4) [A2B2] 
   0.25000000000000   0.25000000000000   0.65578000000000  Ni    
   0.75000000000000   0.75000000000000   0.34422000000000  Ni    
   0.25000000000000   0.25000000000000   0.15770000000000  Si    
   0.75000000000000   0.75000000000000   0.84230000000000  Si