KPOINTS
 0
Gamma point shift
 18    18    18
  0     0     0
