k-Path R-G-X-M-G
1000
Line-mode
reciprocal
   0.5000  0.5000  0.5000  R
   0.0000  0.0000  0.0000  \Gamma

   0.0000  0.0000  0.0000  \Gamma
   0.0000  0.5000  0.0000  X

   0.0000  0.5000  0.0000  X
   0.5000  0.5000  0.0000  M

   0.5000  0.5000  0.0000  M
   0.0000  0.0000  0.0000  \Gamma