Nickel silicide (1/1)  [ORC,ORC,oP4] (ST
   1.00000000000000     
     3.0156497228540813    0.0000000000000000    0.0000000000000000
     0.0000000000000000    3.2912484515141500    0.0000000000000000
     0.0000000000000000    0.0000000000000000    4.7168932594152375
  Ni/0534bc51ca8  Si/79d9987ad87
               2               2
Direct
  0.2500000000000000  0.2500000000000000  0.6577463052421533
  0.7500000000000000  0.7500000000000000  0.3422536947578466
  0.2500000000000000  0.2500000000000000  0.1571373037879527
  0.7500000000000000  0.7500000000000000  0.8428626962120472
 
  0.00000000E+00  0.00000000E+00  0.00000000E+00
  0.00000000E+00  0.00000000E+00  0.00000000E+00
  0.00000000E+00  0.00000000E+00  0.00000000E+00
  0.00000000E+00  0.00000000E+00  0.00000000E+00
