NiSi                                    
   1.00000000000000     
     4.5192261568560061    0.0000000000000000    0.0000000000000000
    -0.0000000000000000    4.5192261568560061   -0.0000000000000000
     0.0000000000000000    0.0000000000000000    4.5192261568560061
  Ni/0534bc51ca8  Si/79d9987ad87
               4               4
Direct
  0.8514388256579214  0.8514388256579214  0.8514388256579214
  0.1485611743420785  0.6485611743420786  0.3514388256579217
  0.3514388256579217  0.1485611743420785  0.6485611743420786
  0.6485611743420786  0.3514388256579217  0.1485611743420785
  0.1535743172849909  0.1535743172849909  0.1535743172849909
  0.8464256827150092  0.3464256827150091  0.6535743172849908
  0.6535743172849908  0.8464256827150092  0.3464256827150091
  0.3464256827150091  0.6535743172849908  0.8464256827150092
 
  0.00000000E+00  0.00000000E+00  0.00000000E+00
  0.00000000E+00  0.00000000E+00  0.00000000E+00
  0.00000000E+00  0.00000000E+00  0.00000000E+00
  0.00000000E+00  0.00000000E+00  0.00000000E+00
  0.00000000E+00  0.00000000E+00  0.00000000E+00
  0.00000000E+00  0.00000000E+00  0.00000000E+00
  0.00000000E+00  0.00000000E+00  0.00000000E+00
  0.00000000E+00  0.00000000E+00  0.00000000E+00
