KPOINTS
 0
Gamma point shift
 50    50    50
  0     0     0
