# Band Structure Non Self Consistent Run

SYSTEM = NiSi Orthorhombic
# IVDW = 11       
PREC = Accurate
EDIFF = 1E-10
EDIFFG = -1E-5

ISMEAR = 0      
SIGMA = 0.03    
GGA = PE

ENCUT = 520    
NSW = 0        

IBRION = -1     
ISIF = 0        

LWAVE = .FALSE.

ICHARG = 11
LORBIT = 11      

EFERMI = 11.1585941821

# ISPIN = 2   
# MAGMOM = numberofions*initialguess

# LSORBIT = .TRUE.
# MAGMOM = x y z
# GGA_COMPAT = .FALSE.
# LASPH = .TRUE.