Nickel silicide (1/1)  [ORC,ORC,oP8] (ST
   1.00000000000000     
     3.3572708124918980   -0.0000000000000000    0.0000000000000000
     0.0000000000000000    5.1801194012842258    0.0000000000000000
     0.0000000000000000    0.0000000000000000    5.6237550080581196
  Ni/0534bc51ca8  Si/79d9987ad87
               4               4
Direct
  0.2500000000000000  0.0082710415461395  0.8116727516194785
  0.7500000000000000  0.9917289584538604  0.1883272483805213
  0.7500000000000000  0.4917289584538604  0.3116727516194787
  0.2500000000000000  0.5082710415461396  0.6883272483805215
  0.7500000000000000  0.3207346435789962  0.9167916649270890
  0.2500000000000000  0.6792653564210042  0.0832083350729108
  0.2500000000000000  0.1792653564210040  0.4167916649270891
  0.7500000000000000  0.8207346435789958  0.5832083350729110
 
  0.00000000E+00  0.00000000E+00  0.00000000E+00
  0.00000000E+00  0.00000000E+00  0.00000000E+00
  0.00000000E+00  0.00000000E+00  0.00000000E+00
  0.00000000E+00  0.00000000E+00  0.00000000E+00
  0.00000000E+00  0.00000000E+00  0.00000000E+00
  0.00000000E+00  0.00000000E+00  0.00000000E+00
  0.00000000E+00  0.00000000E+00  0.00000000E+00
  0.00000000E+00  0.00000000E+00  0.00000000E+00
