Nickel silicide (1/1)  [ORC,ORC,oP8] (STD_PRIM doi:10.1016/j.commatsci.2010.05.010)
1.000000
   3.33210000000000   0.00000000000000   0.00000000000000
   0.00000000000000   5.17520000000000   0.00000000000000
   0.00000000000000   0.00000000000000   5.60940000000000
Ni Si 
4 4 
Direct(8) [A4B4] 
   0.25000000000000   0.00785000000000   0.81269000000000  Ni    
   0.75000000000000   0.99215000000000   0.18731000000000  Ni    
   0.75000000000000   0.49215000000000   0.31269000000000  Ni    
   0.25000000000000   0.50785000000000   0.68731000000000  Ni    
   0.75000000000000   0.32152000000000   0.91834000000000  Si    
   0.25000000000000   0.67848000000000   0.08166000000000  Si    
   0.25000000000000   0.17848000000000   0.41834000000000  Si    
   0.75000000000000   0.82152000000000   0.58166000000000  Si