Nickel silicide (1/1)  [ORC,ORC,oP4] (ST
   1.00000000000000     
     3.0155183550244575   -0.0000000000000000    0.0000000000000000
     0.0000000000000000    3.2913229601789409    0.0000000000000000
     0.0000000000000000    0.0000000000000000    4.7168175120839333
  Ni/0534bc51ca8  Si/79d9987ad87
               2               2
Direct
  0.2500000000000000  0.2500000000000000  0.6577337744088340
  0.7500000000000000  0.7500000000000000  0.3422662255911658
  0.2500000000000000  0.2500000000000000  0.1571287304443345
  0.7500000000000000  0.7500000000000000  0.8428712695556655
 
  0.00000000E+00  0.00000000E+00  0.00000000E+00
  0.00000000E+00  0.00000000E+00  0.00000000E+00
  0.00000000E+00  0.00000000E+00  0.00000000E+00
  0.00000000E+00  0.00000000E+00  0.00000000E+00
