Nickel silicide (1/1)  [ORC,ORC,oP8] (ST
   1.00000000000000     
     3.3572343857977209    0.0000000000000000    0.0000000000000000
    -0.0000000000000000    5.1800471594910844    0.0000000000000000
     0.0000000000000000    0.0000000000000000    5.6238194705048299
  Ni/0534bc51ca8  Si/79d9987ad87
               4               4
Direct
  0.2500000000000000  0.0082772268483454  0.8116718521443331
  0.7500000000000000  0.9917227731516547  0.1883281478556667
  0.7500000000000000  0.4917227731516545  0.3116718521443334
  0.2500000000000000  0.5082772268483453  0.6883281478556669
  0.7500000000000000  0.3207393734123474  0.9167970851472064
  0.2500000000000000  0.6792606265876525  0.0832029148527936
  0.2500000000000000  0.1792606265876526  0.4167970851472064
  0.7500000000000000  0.8207393734123475  0.5832029148527936
 
  0.00000000E+00  0.00000000E+00  0.00000000E+00
  0.00000000E+00  0.00000000E+00  0.00000000E+00
  0.00000000E+00  0.00000000E+00  0.00000000E+00
  0.00000000E+00  0.00000000E+00  0.00000000E+00
  0.00000000E+00  0.00000000E+00  0.00000000E+00
  0.00000000E+00  0.00000000E+00  0.00000000E+00
  0.00000000E+00  0.00000000E+00  0.00000000E+00
  0.00000000E+00  0.00000000E+00  0.00000000E+00
