KPOINTS
 0
Gamma point shift
 24    24    24
  0     0     0