# Band Structure Non Self Consistent Run

SYSTEM = NiSi Orthorhombic Pnma (No. 62) MnP type
NCORE = 2
PREC = Accurate
EDIFF = 1E-10
EDIFFG = -1E-5

ISMEAR = 0
SIGMA = 0.03
GGA = PE

ENCUT = 520
NSW = 0

IBRION = -1
ISIF = 0

LWAVE = .FALSE.
#LCHARG = .FALSE.

ICHARG = 11
LORBIT = 11

EFERMI = 10.3020338107