ORC (orthorhombic) G-X-S-Y-G-Z-U-R-T-Z Y-T U-X S-R
1000
Line-mode
reciprocal
   0.0000   0.0000   0.0000   \Gamma
   0.5000   0.0000   0.0000   X
 
   0.5000   0.0000   0.0000   X
   0.5000   0.5000   0.0000   S
 
   0.5000   0.5000   0.0000   S
   0.0000   0.5000   0.0000   Y
 
   0.0000   0.5000   0.0000   Y
   0.0000   0.0000   0.0000   \Gamma
 
   0.0000   0.0000   0.0000   \Gamma
   0.0000   0.0000   0.5000   Z
 
   0.0000   0.0000   0.5000   Z
   0.5000   0.0000   0.5000   U
 
   0.5000   0.0000   0.5000   U
   0.5000   0.5000   0.5000   R
 
   0.5000   0.5000   0.5000   R
   0.0000   0.5000   0.5000   T
 
   0.0000   0.5000   0.5000   T
   0.0000   0.0000   0.5000   Z
 
   0.0000   0.5000   0.0000   Y
   0.0000   0.5000   0.5000   T
 
   0.5000   0.0000   0.5000   U
   0.5000   0.0000   0.0000   X
 
   0.5000   0.5000   0.0000   S
   0.5000   0.5000   0.5000   R